
Gurobi 9.1.2 (linux64, gurobi_cl) logging started Fri Jul 30 13:52:39 2021

Using license file /opt/gurobi/gurobi.lic
Set parameter TimeLimit to value 600
Set parameter LogFile to value 912-Presolve2-glass4-0.log
Set parameter Presolve to value 2

Gurobi Optimizer version 9.1.2 build v9.1.2rc0 (linux64)
Copyright (c) 2021, Gurobi Optimization, LLC

Read MPS format model from file /nfs/models/mip/glass4.mps.bz2
Reading time = 0.00 seconds
glass4: 396 rows, 322 columns, 1815 nonzeros
Thread count: 4 physical cores, 8 logical processors, using up to 8 threads
Optimize a model with 396 rows, 322 columns and 1815 nonzeros
Model fingerprint: 0x0a9d9037
Variable types: 20 continuous, 302 integer (0 binary)
Coefficient statistics:
  Matrix range     [1e+00, 8e+06]
  Objective range  [1e+00, 1e+06]
  Bounds range     [1e+00, 8e+02]
  RHS range        [1e+00, 8e+06]
Presolve removed 6 rows and 6 columns
Presolve time: 0.00s
Presolved: 390 rows, 316 columns, 1803 nonzeros
Variable types: 19 continuous, 297 integer (297 binary)
Found heuristic solution: objective 3.133356e+09
Presolved: 390 rows, 316 columns, 1803 nonzeros


Root relaxation: objective 8.000024e+08, 36 iterations, 0.00 seconds

    Nodes    |    Current Node    |     Objective Bounds      |     Work
 Expl Unexpl |  Obj  Depth IntInf | Incumbent    BestBd   Gap | It/Node Time

     0     0 8.0000e+08    0   72 3.1334e+09 8.0000e+08  74.5%     -    0s
H    0     0                    2.300019e+09 8.0000e+08  65.2%     -    0s
H    0     0                    2.100018e+09 8.0000e+08  61.9%     -    0s
     0     0 8.0000e+08    0   72 2.1000e+09 8.0000e+08  61.9%     -    0s
     0     0 8.0000e+08    0   72 2.1000e+09 8.0000e+08  61.9%     -    0s
     0     0 8.0000e+08    0   76 2.1000e+09 8.0000e+08  61.9%     -    0s
     0     0 8.0000e+08    0   74 2.1000e+09 8.0000e+08  61.9%     -    0s
     0     2 8.0000e+08    0   74 2.1000e+09 8.0000e+08  61.9%     -    0s
H   31    40                    2.000018e+09 8.0000e+08  60.0%  28.0    0s
H  490   709                    2.000017e+09 8.0000e+08  60.0%   7.3    0s
H  578   705                    1.950017e+09 8.0000e+08  59.0%   6.9    0s
H  749   767                    1.900016e+09 8.0000e+08  57.9%   6.6    0s
H 1434  1197                    1.900016e+09 8.0000e+08  57.9%   7.0    0s
H 1436  1138                    1.860015e+09 8.0000e+08  57.0%   7.0    0s
H 1500  1138                    1.700014e+09 8.0000e+08  52.9%   6.8    0s
H 2550  1394                    1.675014e+09 8.0000e+08  52.2%   5.5    0s
H 2581  1412                    1.666681e+09 8.0000e+08  52.0%   5.5    0s
H 2596  1285                    1.600013e+09 8.0000e+08  50.0%   5.5    0s
H 5155  2427                    1.566680e+09 8.0000e+08  48.9%   4.3    0s
H14945  7873                    1.566680e+09 8.0000e+08  48.9%   3.9    1s
H29700 14664                    1.550014e+09 9.0000e+08  41.9%   3.9    3s
H29713 13938                    1.525014e+09 9.0000e+08  41.0%   3.9    3s
H29961 13381                    1.500013e+09 9.0000e+08  40.0%   4.1    4s
H29969 12716                    1.480013e+09 9.0000e+08  39.2%   4.1    4s
 30370 12900 9.4082e+08   33   76 1.4800e+09 9.0000e+08  39.2%   4.5    5s
H30557 12213                    1.475013e+09 9.0000e+08  39.0%   4.6    5s
H30558 11613                    1.475013e+09 9.0000e+08  39.0%   4.6    5s
*38021 12011              52    1.462516e+09 9.0001e+08  38.5%   7.5    7s
*38022 11455              52    1.450016e+09 9.0001e+08  37.9%   7.5    7s
*38023 10887              51    1.433349e+09 9.0001e+08  37.2%   7.5    7s
H46050  9172                    1.366682e+09 9.0001e+08  34.1%   9.5    9s
H46302  7147                    1.200013e+09 9.0001e+08  25.0%   9.7    9s
 50619  4997 1.0000e+09   42   47 1.2000e+09 9.7498e+08  18.8%   9.9   10s

Cutting planes:
  Gomory: 6
  Cover: 3
  Implied bound: 8
  Projected implied bound: 4
  MIR: 17
  Flow cover: 55
  RLT: 9
  Relax-and-lift: 9

Explored 53264 nodes (543077 simplex iterations) in 10.31 seconds
Thread count was 8 (of 8 available processors)

Solution count 10: 1.20001e+09 1.36668e+09 1.43335e+09 ... 1.52501e+09

Optimal solution found (tolerance 1.00e-04)
Best objective 1.200012600000e+09, best bound 1.200003400000e+09, gap 0.0008%
